c A SAT instance generated from a 3-CNF formula that had 18 clauses and 6 variables
p cnf 6 18
4 -6 -5 0
3 -4 6 0
-1 6 5 0
4 5 3 0
5 3 -2 0
6 -5 -4 0
-5 -1 -2 0
-6 2 -5 0
6 -5 1 0
3 1 -5 0
-4 -2 -6 0
-5 -6 2 0
-1 -6 2 0
-1 -3 5 0
4 6 2 0
-4 -1 2 0
5 2 -3 0
-5 6 -4 0
